decision_x1=[0,2];
decision_x2=[0,2];
decision_x3=[0,2];
decision_x4=[0,2];
decision_x5=[0,2];
decision_x6=[0,2];
decision_x7=[0,2];
decision_x8=[0,2];
decision_x9=[0,2];
decision_x10=[0,2];
random_y1=[0,2];
random_y2=[0,2];
random_y3=[0,2];
random_y4=[0,2];
constraint_x3_x1=[
0,0,3.3|
0,1,7.3|
0,2,0.66|
1,0,1.8|
1,1,2|
1,2,0.83|
2,0,8.7|
2,1,8|
2,2,4.7|
];
constraint_x3_x2=[
0,0,8.6|
0,1,4.3|
0,2,0.89|
1,0,5.5|
1,1,0.55|
1,2,8.6|
2,0,5|
2,1,6.7|
2,2,2.8|
];
constraint_x4_x2=[
0,0,5.7|
0,1,1.6|
0,2,9.5|
1,0,9.6|
1,1,7.9|
1,2,0.83|
2,0,6.3|
2,1,3.1|
2,2,8|
];
constraint_x5_x1=[
0,0,7.6|
0,1,2.5|
0,2,4.7|
1,0,3.7|
1,1,3.8|
1,2,6.5|
2,0,2.1|
2,1,4.1|
2,2,9.6|
];
constraint_x5_x2=[
0,0,7.6|
0,1,7.2|
0,2,9.7|
1,0,1.1|
1,1,7.1|
1,2,6.3|
2,0,8.3|
2,1,7.8|
2,2,2.8|
];
constraint_x6_x1=[
0,0,9.2|
0,1,0.71|
0,2,2.3|
1,0,5.4|
1,1,7|
1,2,2.8|
2,0,8.3|
2,1,4.4|
2,2,5.4|
];
constraint_x6_x2=[
0,0,2.5|
0,1,4.9|
0,2,8.8|
1,0,4.4|
1,1,5.6|
1,2,9.2|
2,0,8.9|
2,1,2|
2,2,3.9|
];
constraint_x6_x3=[
0,0,4|
0,1,4.9|
0,2,1.6|
1,0,1.3|
1,1,4.1|
1,2,2.9|
2,0,2.4|
2,1,2.7|
2,2,5.6|
];
constraint_x6_x4=[
0,0,5.5|
0,1,4.3|
0,2,3.8|
1,0,9.6|
1,1,1.3|
1,2,8.6|
2,0,8.5|
2,1,8.9|
2,2,0.45|
];
constraint_x7_x1=[
0,0,5.2|
0,1,6.3|
0,2,3.6|
1,0,5.3|
1,1,8.5|
1,2,1|
2,0,2.2|
2,1,2.8|
2,2,1.1|
];
constraint_x7_x4=[
0,0,9|
0,1,2.8|
0,2,6.9|
1,0,4.4|
1,1,0.37|
1,2,2.9|
2,0,6.8|
2,1,7.1|
2,2,3.2|
];
constraint_x8_x4=[
0,0,4.7|
0,1,1.6|
0,2,8.5|
1,0,0.47|
1,1,2.6|
1,2,5.6|
2,0,0.51|
2,1,0.6|
2,2,1.1|
];
constraint_x8_x6=[
0,0,2.1|
0,1,7.4|
0,2,8.5|
1,0,8.3|
1,1,9.3|
1,2,7.4|
2,0,5.1|
2,1,1.7|
2,2,3.7|
];
constraint_x8_x7=[
0,0,7.9|
0,1,1.7|
0,2,6.7|
1,0,5.1|
1,1,6.6|
1,2,6.1|
2,0,8.9|
2,1,1|
2,2,5.6|
];
constraint_x9_x4=[
0,0,1.3|
0,1,5.6|
0,2,9|
1,0,6.9|
1,1,0.4|
1,2,0.81|
2,0,2.4|
2,1,5.4|
2,2,9|
];
constraint_x9_x5=[
0,0,5.1|
0,1,9|
0,2,1.5|
1,0,9.4|
1,1,2.1|
1,2,6.6|
2,0,7.3|
2,1,3.9|
2,2,2.9|
];
constraint_x9_x6=[
0,0,3.1|
0,1,7.2|
0,2,6.8|
1,0,3.4|
1,1,4.6|
1,2,6.5|
2,0,5.5|
2,1,7.4|
2,2,5.6|
];
constraint_x9_x8=[
0,0,0.3|
0,1,9.9|
0,2,1.1|
1,0,1.4|
1,1,4|
1,2,6.8|
2,0,7.6|
2,1,5.4|
2,2,7.8|
];
constraint_x10_x1=[
0,0,5.2|
0,1,10|
0,2,9.2|
1,0,0.54|
1,1,3|
1,2,0.67|
2,0,1.1|
2,1,8.7|
2,2,0.43|
];
constraint_x10_x4=[
0,0,0.3|
0,1,4.8|
0,2,2|
1,0,4|
1,1,5.8|
1,2,5.6|
2,0,5.6|
2,1,4.3|
2,2,0.19|
];
constraint_x10_x5=[
0,0,3.4|
0,1,8.7|
0,2,8.2|
1,0,9.4|
1,1,9.7|
1,2,0.1|
2,0,9|
2,1,0.69|
2,2,0.59|
];
constraint_x10_x6=[
0,0,2.8|
0,1,3.8|
0,2,3.7|
1,0,0.13|
1,1,6.5|
1,2,4|
2,0,1.4|
2,1,5.3|
2,2,8.7|
];
constraint_x10_x9=[
0,0,2.5|
0,1,4.4|
0,2,2.9|
1,0,9.9|
1,1,3.7|
1,2,5.7|
2,0,9.7|
2,1,9.3|
2,2,4.1|
];
constraint_x1_y1=[
0,0,1.6|
0,1,0.78|
0,2,4.6|
1,0,7.6|
1,1,2.2|
1,2,8.1|
2,0,6.7|
2,1,7|
2,2,2.7|
];
constraint_x2_y2=[
0,0,2.2|
0,1,4.8|
0,2,5.7|
1,0,7.6|
1,1,4.9|
1,2,7.7|
2,0,1.3|
2,1,0.58|
2,2,7.6|
];
constraint_x3_y3=[
0,0,5.6|
0,1,0.9|
0,2,5.5|
1,0,1.4|
1,1,8.4|
1,2,9.1|
2,0,4.9|
2,1,3.1|
2,2,9.3|
];
constraint_x4_y4=[
0,0,1.4|
0,1,4.6|
0,2,6.6|
1,0,2.7|
1,1,0.11|
1,2,0.46|
2,0,8|
2,1,5.4|
2,2,7.5|
];
initial_distribution_y1=[0.44,0.026,0.53];
initial_distribution_y2=[0.57,0.32,0.1];
initial_distribution_y3=[0.31,0.28,0.41];
initial_distribution_y4=[0.034,0.43,0.53];
transition_y1=[
0.45,0.081,0.47|
0.31,0.33,0.36|
0.42,0.49,0.091|
];
transition_y2=[
0.42,0.25,0.33|
0.081,0.7,0.21|
0.049,0.21,0.74|
];
transition_y3=[
0.036,0.45,0.52|
0.29,0.032,0.68|
0.49,0.17,0.33|
];
transition_y4=[
0.38,0.6,0.014|
0.55,0.39,0.056|
0.23,0.38,0.38|
];
